%pal nprocs 16 end
%maxcore 2000
! pbe0 d4 def2-SVP freq RIJCOSX Def2/J defgrid3 TightSCF

* xyzfile 0 1 uracil_s0.xyz

